TSPJ_GAMS/eil51/TSPJ.txt
dset=B   rng=BOUNDS!a1  cdim=1
par=BOUNDS   rng=BOUNDS!a1    cdim=1
